c SAT Generator for power-law distributed variable frequencies
c -g u -v 20 -c 91 -k 3 -p 2.750000 -b 3.200000 -f /home/schmidt/Devel/ni-kop-sat/data/ensemble/ruf20-91/ruf20-91-400 -u 1 -U 1 -s 1948721598
p cnf 20 91
5 -8 18 0
1 -9 20 0
-2 7 -10 0
1 -4 8 0
1 -6 -14 0
-9 -13 15 0
-4 -8 -11 0
-5 7 -11 0
-3 11 16 0
-1 -9 11 0
7 13 20 0
4 -5 17 0
-10 13 -17 0
-8 -9 11 0
1 5 -20 0
6 -17 -19 0
3 10 20 0
5 10 12 0
-8 -10 14 0
8 9 20 0
-9 -18 -20 0
6 7 12 0
2 -7 -16 0
-9 -16 -19 0
-3 14 16 0
2 7 -8 0
-8 -13 -20 0
-4 -9 10 0
-6 9 12 0
14 -16 -17 0
2 -3 -7 0
-1 -4 18 0
6 9 10 0
8 -11 19 0
3 -9 -20 0
-2 15 16 0
-14 -16 -17 0
-8 -16 -18 0
-3 4 -13 0
-3 7 -8 0
-2 -10 11 0
-7 -14 17 0
-2 -9 17 0
-3 12 -15 0
6 8 -11 0
-6 12 -14 0
4 -7 -12 0
4 13 -20 0
1 5 -12 0
-2 -6 -18 0
-2 -11 15 0
6 -13 -17 0
-6 -12 15 0
-12 17 20 0
12 13 -18 0
3 -6 -14 0
-1 -8 9 0
-7 15 -19 0
10 12 18 0
-6 -8 11 0
6 -17 18 0
-1 -7 11 0
11 14 20 0
-1 8 15 0
-9 14 -18 0
3 4 14 0
-5 -8 -13 0
6 13 15 0
11 13 15 0
3 4 -18 0
-4 10 19 0
4 12 14 0
4 14 19 0
-12 -14 15 0
8 10 -20 0
10 -13 -18 0
-8 -16 17 0
-5 16 -19 0
4 15 17 0
3 -11 -12 0
-2 -12 14 0
11 16 -19 0
-8 11 -13 0
7 -9 -15 0
8 -12 18 0
-2 10 -14 0
-1 -12 15 0
-8 -10 -19 0
1 4 -8 0
1 -5 -10 0
-7 10 -12 0
